files/upTests/_zznested_singletons/nestedSingleton2-1-m/0001.eprime.solution
language ESSENCE' 1.0
$ minion Nodes: 1
$ minion TotalTime: 0.000456
$ Savile Row TotalTime: 0.168
letting pain_tuple1_tuple3 be [8, 5, 4]
letting pain_tuple1_tuple4 be [9, 7, 6]
letting pain_tuple1_tuple1 be [1, 2, 4]
letting pain_tuple1_tuple2 be [2, 3, 5]
